sets/C/cp-n17-k4.opt
Route #1: 15 6 13 3 11
Route #2: 14 10 9 2 4
Route #3: 7 12 8
Route #4: 5 16 1
cost 78
